
        $ From http://www.csplib.org/Problems/prob009/data/helmut.pdf
        $ Problem number 45
        $ Sequence length : 24
        language ESSENCE' 1.0
        letting sizemaster be 459
        letting sizes be sequence(8,9,10,11,16,30,36,38,45,55,57,65,68,84,95,98,100,116,117,126,135,144,180,198)
        